experiments/21_JSA_experiments/solutions/imx8a/all/IN_4.json-ILP-SM-II.out.log
Using license file /home/benedond/gurobi.lic
Using gurobi.env file
Set parameter Threads to value 1
Academic license - for non-commercial use only
Changed value of parameter TimeLimit to 300.0
   Prev: inf  Min: 0.0  Max: inf  Default: inf
Gurobi Optimizer version 9.0.1 build v9.0.1rc0 (linux64)
Optimize a model with 1003 rows, 902 columns and 4274 nonzeros
Model fingerprint: 0xc1202fe4
Variable types: 40 continuous, 862 integer (862 binary)
Coefficient statistics:
  Matrix range     [2e-01, 5e+02]
  Objective range  [2e-02, 5e-01]
  Bounds range     [1e+00, 1e+00]
  RHS range        [1e+00, 9e+02]
Found heuristic solution: objective 4.4955107
Presolve removed 84 rows and 57 columns
Presolve time: 0.02s
Presolved: 919 rows, 845 columns, 3936 nonzeros
Variable types: 39 continuous, 806 integer (806 binary)

Root relaxation: objective 2.156715e+00, 966 iterations, 0.02 seconds

    Nodes    |    Current Node    |     Objective Bounds      |     Work
 Expl Unexpl |  Obj  Depth IntInf | Incumbent    BestBd   Gap | It/Node Time

     0     0    2.15672    0   96    4.49551    2.15672  52.0%     -    0s
H    0     0                       4.1968617    2.15672  48.6%     -    0s
     0     0    2.36389    0  100    4.19686    2.36389  43.7%     -    0s
H    0     0                       4.1846596    2.36389  43.5%     -    0s
     0     0    2.36689    0  111    4.18466    2.36689  43.4%     -    0s
     0     0    2.45244    0  124    4.18466    2.45244  41.4%     -    0s
     0     0    2.49733    0  119    4.18466    2.49733  40.3%     -    0s
     0     0    2.51291    0  110    4.18466    2.51291  39.9%     -    0s
     0     0    2.51343    0  129    4.18466    2.51343  39.9%     -    0s
     0     0    2.51364    0   97    4.18466    2.51364  39.9%     -    0s
     0     0    2.56006    0  126    4.18466    2.56006  38.8%     -    0s
     0     0    2.57812    0  118    4.18466    2.57812  38.4%     -    0s
     0     0    2.57907    0  128    4.18466    2.57907  38.4%     -    0s
     0     0    2.57934    0  114    4.18466    2.57934  38.4%     -    0s
     0     0    2.57935    0  123    4.18466    2.57935  38.4%     -    0s
     0     0    2.63655    0  126    4.18466    2.63655  37.0%     -    0s
     0     0    2.65357    0  135    4.18466    2.65357  36.6%     -    0s
     0     0    2.65572    0  148    4.18466    2.65572  36.5%     -    0s
     0     0    2.65606    0  141    4.18466    2.65606  36.5%     -    0s
     0     0    2.68075    0  156    4.18466    2.68075  35.9%     -    0s
     0     0    2.68520    0  140    4.18466    2.68520  35.8%     -    0s
     0     0    2.68624    0  123    4.18466    2.68624  35.8%     -    0s
     0     0    2.68624    0  131    4.18466    2.68624  35.8%     -    0s
     0     0    2.70666    0  151    4.18466    2.70666  35.3%     -    0s
     0     0    2.70787    0  150    4.18466    2.70787  35.3%     -    0s
     0     0    2.70832    0  151    4.18466    2.70832  35.3%     -    0s
     0     0    2.73355    0  141    4.18466    2.73355  34.7%     -    0s
     0     0    2.73511    0  149    4.18466    2.73511  34.6%     -    0s
     0     0    2.73542    0  143    4.18466    2.73542  34.6%     -    0s
     0     0    2.74735    0  123    4.18466    2.74735  34.3%     -    0s
     0     0    2.74900    0  126    4.18466    2.74900  34.3%     -    0s
     0     0    2.74910    0  114    4.18466    2.74910  34.3%     -    0s
     0     0    2.75455    0  146    4.18466    2.75455  34.2%     -    0s
H    0     0                       3.8280000    2.75455  28.0%     -    0s
H    0     0                       3.6318511    2.75455  24.2%     -    0s
     0     0    2.75636    0  148    3.63185    2.75636  24.1%     -    0s
     0     0    2.75688    0  174    3.63185    2.75688  24.1%     -    0s
     0     0    2.76492    0  153    3.63185    2.76492  23.9%     -    0s
     0     0    2.76601    0  152    3.63185    2.76601  23.8%     -    0s
     0     0    2.76637    0  148    3.63185    2.76637  23.8%     -    0s
     0     0    2.77200    0  145    3.63185    2.77200  23.7%     -    0s
     0     0    2.77281    0  146    3.63185    2.77281  23.7%     -    0s
     0     0    2.77314    0  145    3.63185    2.77314  23.6%     -    0s
     0     0    2.78146    0  159    3.63185    2.78146  23.4%     -    0s
     0     0    2.78319    0  150    3.63185    2.78319  23.4%     -    0s
     0     0    2.78348    0  153    3.63185    2.78348  23.4%     -    0s
     0     0    2.79185    0  156    3.63185    2.79185  23.1%     -    0s
     0     0    2.79398    0  168    3.63185    2.79398  23.1%     -    0s
     0     0    2.79449    0  151    3.63185    2.79449  23.1%     -    0s
     0     0    2.79721    0  168    3.63185    2.79721  23.0%     -    0s
     0     0    2.79721    0  168    3.63185    2.79721  23.0%     -    1s
     0     2    2.79770    0  168    3.63185    2.79770  23.0%     -    1s
H   27    27                       3.5714149    2.81290  21.2%   141    1s
H   62    62                       3.4939043    2.81290  19.5%   110    1s
H  135   103                       3.3943936    2.82817  16.7%  72.3    2s
H  510   319                       3.3052341    2.83987  14.1%  49.2    3s
   550   338    3.27689   22  208    3.30523    2.87533  13.0%  45.6    5s
   627   391    2.93264   18  110    3.30523    2.93192  11.3%  58.0   10s
H  729   357                       3.1679468    2.93466  7.36%  64.3   11s
H  766   332                       3.1277021    2.93466  6.17%  64.5   11s
* 1486   184              33       3.1258724    3.05067  2.41%  62.2   14s
  1620   123    3.09980   26   38    3.12587    3.06986  1.79%  60.7   15s
* 1771    70              33       3.1250107    3.08705  1.21%  59.0   15s
* 1773    65              34       3.1171383    3.08705  0.97%  59.0   15s

Cutting planes:
  Cover: 17
  Implied bound: 2
  Projected implied bound: 1
  Clique: 7
  MIR: 97
  StrongCG: 4
  Flow cover: 289
  Zero half: 1
  Mod-K: 2
  RLT: 7
  Relax-and-lift: 88

Explored 1848 nodes (111785 simplex iterations) in 15.50 seconds
Thread count was 1 (of 4 available processors)

Solution count 10: 3.11714 3.12501 3.12587 ... 3.63185

Optimal solution found (tolerance 1.00e-04)
Best objective 3.117138308588e+00, best bound 3.116853528152e+00, gap 0.0091%
